90 4005
1 2 37
1 3 235
1 4 72
1 5 255
1 6 203
1 7 133
1 8 144
1 9 129
1 10 71
1 11 237
1 12 178
1 13 254
1 14 252
1 15 156
1 16 50
1 17 68
1 18 215
1 19 241
1 20 86
1 21 141
1 22 7
1 23 22
1 24 1
1 25 209
1 26 264
1 27 216
1 28 141
1 29 115
1 30 121
1 31 30
1 32 71
1 33 49
1 34 3
1 35 43
1 36 76
1 37 26
1 38 109
1 39 15
1 40 64
1 41 196
1 42 25
1 43 226
1 44 153
1 45 104
1 46 22
1 47 265
1 48 195
1 49 126
1 50 155
1 51 83
1 52 166
1 53 136
1 54 266
1 55 143
1 56 239
1 57 87
1 58 243
1 59 74
1 60 190
1 61 216
1 62 151
1 63 183
1 64 259
1 65 253
1 66 262
1 67 52
1 68 2
1 69 76
1 70 149
1 71 203
1 72 263
1 73 77
1 74 200
1 75 75
1 76 43
1 77 20
1 78 30
1 79 36
1 80 263
1 81 57
1 82 240
1 83 210
1 84 96
1 85 269
1 86 10
1 87 152
1 88 202
1 89 148
1 90 140
2 3 193
2 4 94
2 5 60
2 6 152
2 7 130
2 8 220
2 9 103
2 10 266
2 11 182
2 12 198
2 13 194
2 14 176
2 15 54
2 16 15
2 17 170
2 18 20
2 19 118
2 20 114
2 21 97
2 22 181
2 23 10
2 24 96
2 25 183
2 26 56
2 27 217
2 28 231
2 29 96
2 30 25
2 31 141
2 32 212
2 33 116
2 34 134
2 35 205
2 36 184
2 37 24
2 38 137
2 39 199
2 40 248
2 41 21
2 42 77
2 43 219
2 44 177
2 45 45
2 46 144
2 47 234
2 48 45
2 49 63
2 50 35
2 51 33
2 52 130
2 53 83
2 54 48
2 55 253
2 56 156
2 57 55
2 58 210
2 59 28
2 60 222
2 61 136
2 62 109
2 63 99
2 64 32
2 65 8
2 66 84
2 67 50
2 68 79
2 69 169
2 70 108
2 71 211
2 72 24
2 73 113
2 74 44
2 75 158
2 76 251
2 77 154
2 78 235
2 79 86
2 80 227
2 81 53
2 82 243
2 83 100
2 84 228
2 85 211
2 86 229
2 87 94
2 88 166
2 89 175
2 90 231
3 4 79
3 5 63
3 6 87
3 7 202
3 8 194
3 9 216
3 10 226
3 11 158
3 12 145
3 13 188
3 14 206
3 15 145
3 16 167
3 17 163
3 18 156
3 19 150
3 20 169
3 21 205
3 22 153
3 23 230
3 24 240
3 25 48
3 26 178
3 27 105
3 28 182
3 29 256
3 30 265
3 31 112
3 32 220
3 33 51
3 34 138
3 35 123
3 36 191
3 37 21
3 38 174
3 39 131
3 40 208
3 41 54
3 42 71
3 43 14
3 44 205
3 45 143
3 46 212
3 47 114
3 48 238
3 49 44
3 50 37
3 51 150
3 52 12
3 53 215
3 54 125
3 55 43
3 56 91
3 57 112
3 58 253
3 59 226
3 60 171
3 61 184
3 62 73
3 63 89
3 64 27
3 65 43
3 66 1
3 67 127
3 68 94
3 69 30
3 70 64
3 71 150
3 72 98
3 73 131
3 74 70
3 75 140
3 76 230
3 77 83
3 78 239
3 79 176
3 80 269
3 81 164
3 82 122
3 83 249
3 84 53
3 85 169
3 86 246
3 87 221
3 88 244
3 89 204
3 90 105
4 5 36
4 6 112
4 7 144
4 8 158
4 9 115
4 10 106
4 11 212
4 12 258
4 13 213
4 14 93
4 15 164
4 16 109
4 17 28
4 18 130
4 19 227
4 20 228
4 21 168
4 22 18
4 23 225
4 24 46
4 25 217
4 26 112
4 27 2
4 28 98
4 29 206
4 30 203
4 31 170
4 32 232
4 33 58
4 34 37
4 35 237
4 36 234
4 37 267
4 38 6
4 39 96
4 40 142
4 41 100
4 42 203
4 43 191
4 44 32
4 45 110
4 46 177
4 47 128
4 48 150
4 49 97
4 50 164
4 51 156
4 52 52
4 53 102
4 54 222
4 55 7
4 56 231
4 57 157
4 58 30
4 59 136
4 60 168
4 61 158
4 62 220
4 63 192
4 64 231
4 65 140
4 66 145
4 67 250
4 68 10
4 69 28
4 70 133
4 71 42
4 72 86
4 73 78
4 74 209
4 75 200
4 76 153
4 77 260
4 78 155
4 79 131
4 80 186
4 81 12
4 82 130
4 83 158
4 84 133
4 85 144
4 86 96
4 87 236
4 88 235
4 89 99
4 90 21
5 6 33
5 7 4
5 8 39
5 9 124
5 10 67
5 11 162
5 12 162
5 13 42
5 14 210
5 15 38
5 16 176
5 17 122
5 18 209
5 19 261
5 20 230
5 21 219
5 22 197
5 23 5
5 24 7
5 25 33
5 26 27
5 27 179
5 28 77
5 29 30
5 30 174
5 31 9
5 32 259
5 33 227
5 34 80
5 35 165
5 36 52
5 37 63
5 38 123
5 39 221
5 40 146
5 41 157
5 42 39
5 43 54
5 44 29
5 45 183
5 46 145
5 47 71
5 48 91
5 49 184
5 50 51
5 51 204
5 52 62
5 53 102
5 54 179
5 55 96
5 56 30
5 57 150
5 58 261
5 59 95
5 60 204
5 61 116
5 62 22
5 63 221
5 64 18
5 65 52
5 66 122
5 67 31
5 68 226
5 69 221
5 70 173
5 71 235
5 72 199
5 73 176
5 74 211
5 75 147
5 76 79
5 77 214
5 78 11
5 79 229
5 80 93
5 81 179
5 82 45
5 83 150
5 84 109
5 85 103
5 86 168
5 87 172
5 88 88
5 89 230
5 90 240
6 7 82
6 8 14
6 9 164
6 10 26
6 11 22
6 12 21
6 13 196
6 14 176
6 15 118
6 16 146
6 17 139
6 18 139
6 19 68
6 20 173
6 21 192
6 22 89
6 23 40
6 24 263
6 25 263
6 26 246
6 27 58
6 28 263
6 29 162
6 30 132
6 31 118
6 32 178
6 33 76
6 34 254
6 35 114
6 36 92
6 37 220
6 38 239
6 39 153
6 40 247
6 41 1
6 42 269
6 43 116
6 44 38
6 45 213
6 46 166
6 47 161
6 48 257
6 49 245
6 50 113
6 51 114
6 52 28
6 53 203
6 54 114
6 55 31
6 56 179
6 57 66
6 58 261
6 59 0
6 60 144
6 61 224
6 62 152
6 63 46
6 64 68
6 65 32
6 66 249
6 67 45
6 68 57
6 69 153
6 70 33
6 71 134
6 72 193
6 73 31
6 74 251
6 75 141
6 76 127
6 77 143
6 78 66
6 79 239
6 80 61
6 81 211
6 82 96
6 83 58
6 84 232
6 85 185
6 86 96
6 87 40
6 88 110
6 89 132
6 90 265
7 8 124
7 9 218
7 10 74
7 11 149
7 12 246
7 13 166
7 14 43
7 15 103
7 16 33
7 17 95
7 18 199
7 19 69
7 20 198
7 21 23
7 22 214
7 23 106
7 24 39
7 25 31
7 26 38
7 27 184
7 28 66
7 29 266
7 30 16
7 31 187
7 32 53
7 33 121
7 34 240
7 35 243
7 36 174
7 37 155
7 38 161
7 39 68
7 40 39
7 41 33
7 42 77
7 43 61
7 44 36
7 45 268
7 46 250
7 47 12
7 48 233
7 49 229
7 50 169
7 51 107
7 52 55
7 53 55
7 54 143
7 55 70
7 56 178
7 57 160
7 58 218
7 59 38
7 60 208
7 61 89
7 62 64
7 63 42
7 64 97
7 65 1
7 66 89
7 67 38
7 68 18
7 69 127
7 70 164
7 71 127
7 72 238
7 73 257
7 74 32
7 75 158
7 76 7
7 77 112
7 78 50
7 79 178
7 80 160
7 81 197
7 82 1
7 83 97
7 84 179
7 85 30
7 86 82
7 87 177
7 88 223
7 89 253
7 90 18
8 9 174
8 10 172
8 11 219
8 12 137
8 13 77
8 14 151
8 15 95
8 16 243
8 17 187
8 18 229
8 19 125
8 20 64
8 21 129
8 22 84
8 23 233
8 24 68
8 25 54
8 26 25
8 27 250
8 28 56
8 29 92
8 30 264
8 31 174
8 32 11
8 33 136
8 34 151
8 35 217
8 36 210
8 37 5
8 38 170
8 39 21
8 40 117
8 41 73
8 42 146
8 43 151
8 44 45
8 45 52
8 46 182
8 47 168
8 48 241
8 49 2
8 50 214
8 51 257
8 52 72
8 53 215
8 54 77
8 55 48
8 56 256
8 57 42
8 58 3
8 59 53
8 60 187
8 61 91
8 62 261
8 63 26
8 64 31
8 65 11
8 66 182
8 67 129
8 68 13
8 69 59
8 70 209
8 71 136
8 72 38
8 73 5
8 74 84
8 75 187
8 76 31
8 77 7
8 78 235
8 79 160
8 80 37
8 81 175
8 82 52
8 83 197
8 84 28
8 85 261
8 86 237
8 87 207
8 88 254
8 89 145
8 90 209
9 10 7
9 11 17
9 12 242
9 13 86
9 14 7
9 15 183
9 16 43
9 17 55
9 18 232
9 19 261
9 20 191
9 21 180
9 22 105
9 23 226
9 24 165
9 25 260
9 26 139
9 27 29
9 28 178
9 29 232
9 30 179
9 31 170
9 32 125
9 33 89
9 34 43
9 35 254
9 36 104
9 37 95
9 38 64
9 39 114
9 40 214
9 41 254
9 42 127
9 43 10
9 44 31
9 45 9
9 46 103
9 47 134
9 48 158
9 49 146
9 50 140
9 51 74
9 52 213
9 53 53
9 54 170
9 55 134
9 56 164
9 57 187
9 58 264
9 59 18
9 60 106
9 61 21
9 62 67
9 63 14
9 64 20
9 65 265
9 66 42
9 67 77
9 68 42
9 69 156
9 70 234
9 71 85
9 72 34
9 73 234
9 74 220
9 75 210
9 76 64
9 77 205
9 78 166
9 79 244
9 80 180
9 81 211
9 82 25
9 83 232
9 84 69
9 85 31
9 86 59
9 87 29
9 88 123
9 89 32
9 90 249
10 11 200
10 12 68
10 13 38
10 14 97
10 15 265
10 16 243
10 17 156
10 18 173
10 19 92
10 20 4
10 21 207
10 22 31
10 23 228
10 24 76
10 25 250
10 26 83
10 27 208
10 28 74
10 29 70
10 30 228
10 31 185
10 32 99
10 33 41
10 34 176
10 35 170
10 36 242
10 37 150
10 38 64
10 39 189
10 40 188
10 41 96
10 42 155
10 43 256
10 44 154
10 45 250
10 46 26
10 47 253
10 48 230
10 49 117
10 50 62
10 51 166
10 52 151
10 53 68
10 54 197
10 55 189
10 56 247
10 57 164
10 58 149
10 59 205
10 60 243
10 61 154
10 62 241
10 63 8
10 64 68
10 65 82
10 66 213
10 67 221
10 68 202
10 69 89
10 70 269
10 71 216
10 72 24
10 73 249
10 74 219
10 75 121
10 76 141
10 77 6
10 78 2
10 79 234
10 80 156
10 81 35
10 82 205
10 83 174
10 84 78
10 85 105
10 86 219
10 87 148
10 88 151
10 89 199
10 90 262
11 12 50
11 13 90
11 14 9
11 15 105
11 16 85
11 17 33
11 18 121
11 19 33
11 20 126
11 21 7
11 22 27
11 23 45
11 24 137
11 25 239
11 26 46
11 27 121
11 28 58
11 29 21
11 30 256
11 31 147
11 32 147
11 33 27
11 34 97
11 35 232
11 36 238
11 37 234
11 38 239
11 39 195
11 40 95
11 41 29
11 42 247
11 43 266
11 44 72
11 45 31
11 46 82
11 47 135
11 48 215
11 49 136
11 50 23
11 51 251
11 52 131
11 53 15
11 54 62
11 55 106
11 56 121
11 57 26
11 58 98
11 59 237
11 60 47
11 61 163
11 62 144
11 63 215
11 64 239
11 65 185
11 66 195
11 67 73
11 68 174
11 69 12
11 70 128
11 71 97
11 72 226
11 73 139
11 74 243
11 75 54
11 76 252
11 77 175
11 78 230
11 79 89
11 80 242
11 81 33
11 82 9
11 83 81
11 84 79
11 85 175
11 86 133
11 87 187
11 88 238
11 89 79
11 90 186
12 13 63
12 14 83
12 15 216
12 16 210
12 17 120
12 18 206
12 19 116
12 20 27
12 21 69
12 22 66
12 23 106
12 24 154
12 25 127
12 26 87
12 27 257
12 28 173
12 29 239
12 30 17
12 31 184
12 32 2
12 33 83
12 34 55
12 35 7
12 36 227
12 37 159
12 38 198
12 39 92
12 40 215
12 41 213
12 42 74
12 43 117
12 44 142
12 45 56
12 46 215
12 47 1
12 48 203
12 49 239
12 50 146
12 51 62
12 52 87
12 53 148
12 54 97
12 55 179
12 56 110
12 57 59
12 58 14
12 59 44
12 60 16
12 61 192
12 62 109
12 63 251
12 64 10
12 65 45
12 66 216
12 67 78
12 68 103
12 69 170
12 70 192
12 71 261
12 72 90
12 73 55
12 74 238
12 75 88
12 76 92
12 77 211
12 78 143
12 79 17
12 80 189
12 81 135
12 82 55
12 83 130
12 84 132
12 85 16
12 86 68
12 87 52
12 88 187
12 89 242
12 90 228
13 14 31
13 15 160
13 16 5
13 17 128
13 18 265
13 19 31
13 20 38
13 21 139
13 22 171
13 23 263
13 24 112
13 25 96
13 26 152
13 27 179
13 28 266
13 29 94
13 30 49
13 31 124
13 32 138
13 33 61
13 34 135
13 35 207
13 36 128
13 37 259
13 38 51
13 39 195
13 40 81
13 41 19
13 42 172
13 43 61
13 44 21
13 45 94
13 46 129
13 47 234
13 48 188
13 49 204
13 50 22
13 51 142
13 52 174
13 53 236
13 54 104
13 55 208
13 56 198
13 57 152
13 58 217
13 59 163
13 60 57
13 61 159
13 62 250
13 63 110
13 64 269
13 65 19
13 66 143
13 67 169
13 68 163
13 69 25
13 70 179
13 71 34
13 72 150
13 73 119
13 74 135
13 75 160
13 76 131
13 77 174
13 78 217
13 79 92
13 80 255
13 81 99
13 82 58
13 83 64
13 84 40
13 85 78
13 86 62
13 87 170
13 88 14
13 89 266
13 90 163
14 15 221
14 16 217
14 17 5
14 18 233
14 19 100
14 20 214
14 21 157
14 22 29
14 23 38
14 24 78
14 25 228
14 26 68
14 27 44
14 28 101
14 29 73
14 30 80
14 31 35
14 32 230
14 33 143
14 34 39
14 35 130
14 36 113
14 37 15
14 38 143
14 39 66
14 40 121
14 41 230
14 42 146
14 43 153
14 44 20
14 45 238
14 46 18
14 47 179
14 48 30
14 49 201
14 50 254
14 51 115
14 52 219
14 53 262
14 54 24
14 55 0
14 56 176
14 57 245
14 58 21
14 59 0
14 60 76
14 61 83
14 62 210
14 63 22
14 64 131
14 65 34
14 66 49
14 67 88
14 68 198
14 69 165
14 70 140
14 71 6
14 72 92
14 73 259
14 74 252
14 75 172
14 76 157
14 77 28
14 78 84
14 79 222
14 80 93
14 81 159
14 82 233
14 83 59
14 84 238
14 85 248
14 86 17
14 87 150
14 88 269
14 89 30
14 90 149
15 16 71
15 17 3
15 18 151
15 19 268
15 20 205
15 21 246
15 22 7
15 23 30
15 24 264
15 25 103
15 26 84
15 27 73
15 28 167
15 29 188
15 30 118
15 31 65
15 32 116
15 33 107
15 34 103
15 35 146
15 36 129
15 37 162
15 38 145
15 39 267
15 40 53
15 41 210
15 42 11
15 43 0
15 44 221
15 45 91
15 46 254
15 47 84
15 48 227
15 49 133
15 50 139
15 51 69
15 52 265
15 53 174
15 54 221
15 55 160
15 56 42
15 57 151
15 58 63
15 59 63
15 60 159
15 61 168
15 62 261
15 63 112
15 64 104
15 65 168
15 66 153
15 67 196
15 68 82
15 69 214
15 70 46
15 71 13
15 72 21
15 73 80
15 74 246
15 75 94
15 76 112
15 77 51
15 78 142
15 79 158
15 80 10
15 81 260
15 82 182
15 83 98
15 84 35
15 85 114
15 86 184
15 87 141
15 88 250
15 89 267
15 90 149
16 17 81
16 18 122
16 19 94
16 20 189
16 21 85
16 22 243
16 23 60
16 24 227
16 25 243
16 26 202
16 27 136
16 28 203
16 29 209
16 30 155
16 31 164
16 32 92
16 33 84
16 34 227
16 35 264
16 36 183
16 37 145
16 38 110
16 39 60
16 40 160
16 41 155
16 42 50
16 43 219
16 44 37
16 45 184
16 46 168
16 47 166
16 48 147
16 49 148
16 50 63
16 51 149
16 52 220
16 53 146
16 54 68
16 55 125
16 56 59
16 57 184
16 58 254
16 59 238
16 60 61
16 61 190
16 62 136
16 63 33
16 64 220
16 65 25
16 66 67
16 67 1
16 68 239
16 69 121
16 70 252
16 71 266
16 72 144
16 73 79
16 74 225
16 75 128
16 76 158
16 77 259
16 78 192
16 79 122
16 80 67
16 81 158
16 82 26
16 83 10
16 84 36
16 85 137
16 86 238
16 87 231
16 88 55
16 89 109
16 90 69
17 18 266
17 19 244
17 20 259
17 21 39
17 22 37
17 23 144
17 24 235
17 25 128
17 26 55
17 27 180
17 28 206
17 29 225
17 30 238
17 31 252
17 32 0
17 33 142
17 34 254
17 35 99
17 36 71
17 37 263
17 38 144
17 39 189
17 40 69
17 41 178
17 42 58
17 43 115
17 44 77
17 45 229
17 46 11
17 47 79
17 48 223
17 49 110
17 50 262
17 51 106
17 52 197
17 53 250
17 54 213
17 55 172
17 56 198
17 57 263
17 58 73
17 59 212
17 60 119
17 61 88
17 62 204
17 63 249
17 64 164
17 65 43
17 66 186
17 67 118
17 68 257
17 69 157
17 70 48
17 71 183
17 72 45
17 73 8
17 74 29
17 75 256
17 76 207
17 77 260
17 78 70
17 79 263
17 80 244
17 81 38
17 82 209
17 83 157
17 84 230
17 85 3
17 86 178
17 87 91
17 88 177
17 89 42
17 90 70
18 19 8
18 20 159
18 21 25
18 22 225
18 23 261
18 24 116
18 25 101
18 26 94
18 27 24
18 28 174
18 29 20
18 30 22
18 31 128
18 32 22
18 33 155
18 34 229
18 35 112
18 36 64
18 37 45
18 38 38
18 39 185
18 40 52
18 41 207
18 42 161
18 43 53
18 44 140
18 45 118
18 46 96
18 47 33
18 48 183
18 49 54
18 50 105
18 51 268
18 52 266
18 53 81
18 54 78
18 55 254
18 56 29
18 57 268
18 58 63
18 59 135
18 60 70
18 61 64
18 62 234
18 63 116
18 64 187
18 65 234
18 66 33
18 67 3
18 68 181
18 69 96
18 70 82
18 71 118
18 72 164
18 73 262
18 74 115
18 75 166
18 76 240
18 77 226
18 78 159
18 79 62
18 80 34
18 81 42
18 82 90
18 83 178
18 84 2
18 85 128
18 86 92
18 87 261
18 88 200
18 89 9
18 90 11
19 20 98
19 21 87
19 22 189
19 23 130
19 24 221
19 25 233
19 26 226
19 27 29
19 28 122
19 29 80
19 30 127
19 31 129
19 32 1
19 33 180
19 34 113
19 35 203
19 36 206
19 37 190
19 38 76
19 39 48
19 40 36
19 41 49
19 42 73
19 43 71
19 44 80
19 45 180
19 46 92
19 47 102
19 48 263
19 49 188
19 50 9
19 51 162
19 52 253
19 53 68
19 54 121
19 55 141
19 56 99
19 57 128
19 58 34
19 59 198
19 60 16
19 61 165
19 62 166
19 63 127
19 64 82
19 65 14
19 66 165
19 67 251
19 68 233
19 69 161
19 70 177
19 71 205
19 72 99
19 73 159
19 74 186
19 75 124
19 76 201
19 77 186
19 78 222
19 79 269
19 80 38
19 81 91
19 82 87
19 83 123
19 84 59
19 85 174
19 86 25
19 87 158
19 88 116
19 89 169
19 90 185
20 21 116
20 22 173
20 23 241
20 24 73
20 25 202
20 26 134
20 27 258
20 28 30
20 29 77
20 30 206
20 31 211
20 32 216
20 33 170
20 34 24
20 35 242
20 36 150
20 37 156
20 38 53
20 39 158
20 40 103
20 41 112
20 42 238
20 43 21
20 44 155
20 45 133
20 46 200
20 47 82
20 48 238
20 49 48
20 50 236
20 51 252
20 52 24
20 53 106
20 54 168
20 55 235
20 56 168
20 57 175
20 58 212
20 59 261
20 60 240
20 61 23
20 62 196
20 63 148
20 64 141
20 65 29
20 66 156
20 67 242
20 68 182
20 69 191
20 70 231
20 71 60
20 72 197
20 73 211
20 74 100
20 75 52
20 76 92
20 77 96
20 78 106
20 79 229
20 80 57
20 81 39
20 82 78
20 83 61
20 84 106
20 85 238
20 86 133
20 87 204
20 88 153
20 89 255
20 90 122
21 22 93
21 23 143
21 24 41
21 25 263
21 26 130
21 27 174
21 28 75
21 29 180
21 30 66
21 31 240
21 32 165
21 33 25
21 34 192
21 35 128
21 36 52
21 37 54
21 38 127
21 39 163
21 40 178
21 41 100
21 42 106
21 43 230
21 44 151
21 45 193
21 46 256
21 47 104
21 48 114
21 49 25
21 50 183
21 51 69
21 52 5
21 53 215
21 54 2
21 55 91
21 56 64
21 57 248
21 58 226
21 59 87
21 60 24
21 61 115
21 62 240
21 63 241
21 64 211
21 65 148
21 66 199
21 67 155
21 68 165
21 69 223
21 70 224
21 71 246
21 72 245
21 73 261
21 74 110
21 75 66
21 76 249
21 77 222
21 78 178
21 79 2
21 80 89
21 81 32
21 82 217
21 83 164
21 84 66
21 85 249
21 86 11
21 87 52
21 88 115
21 89 221
21 90 212
22 23 251
22 24 135
22 25 238
22 26 197
22 27 185
22 28 89
22 29 124
22 30 67
22 31 105
22 32 202
22 33 268
22 34 24
22 35 211
22 36 227
22 37 22
22 38 168
22 39 77
22 40 21
22 41 143
22 42 183
22 43 196
22 44 210
22 45 267
22 46 164
22 47 185
22 48 27
22 49 207
22 50 140
22 51 129
22 52 191
22 53 85
22 54 254
22 55 208
22 56 123
22 57 84
22 58 155
22 59 221
22 60 135
22 61 12
22 62 255
22 63 61
22 64 165
22 65 62
22 66 194
22 67 200
22 68 261
22 69 126
22 70 127
22 71 0
22 72 258
22 73 233
22 74 132
22 75 64
22 76 35
22 77 132
22 78 80
22 79 14
22 80 2
22 81 216
22 82 128
22 83 190
22 84 257
22 85 219
22 86 111
22 87 124
22 88 251
22 89 44
22 90 113
23 24 225
23 25 47
23 26 59
23 27 93
23 28 82
23 29 242
23 30 138
23 31 109
23 32 95
23 33 73
23 34 229
23 35 210
23 36 179
23 37 152
23 38 183
23 39 253
23 40 37
23 41 57
23 42 225
23 43 87
23 44 241
23 45 44
23 46 185
23 47 246
23 48 55
23 49 63
23 50 208
23 51 56
23 52 154
23 53 53
23 54 240
23 55 166
23 56 186
23 57 43
23 58 105
23 59 19
23 60 75
23 61 162
23 62 127
23 63 58
23 64 129
23 65 186
23 66 152
23 67 119
23 68 211
23 69 250
23 70 142
23 71 164
23 72 24
23 73 56
23 74 31
23 75 156
23 76 252
23 77 130
23 78 59
23 79 168
23 80 143
23 81 37
23 82 210
23 83 188
23 84 100
23 85 82
23 86 8
23 87 233
23 88 269
23 89 61
23 90 168
24 25 73
24 26 202
24 27 196
24 28 24
24 29 33
24 30 18
24 31 126
24 32 206
24 33 263
24 34 38
24 35 49
24 36 14
24 37 45
24 38 185
24 39 119
24 40 154
24 41 113
24 42 127
24 43 23
24 44 42
24 45 221
24 46 89
24 47 209
24 48 154
24 49 46
24 50 109
24 51 167
24 52 39
24 53 134
24 54 68
24 55 112
24 56 39
24 57 73
24 58 228
24 59 24
24 60 199
24 61 32
24 62 268
24 63 135
24 64 258
24 65 228
24 66 20
24 67 85
24 68 94
24 69 171
24 70 180
24 71 95
24 72 103
24 73 217
24 74 179
24 75 67
24 76 175
24 77 127
24 78 199
24 79 8
24 80 114
24 81 137
24 82 46
24 83 120
24 84 190
24 85 269
24 86 160
24 87 221
24 88 104
24 89 52
24 90 239
25 26 246
25 27 236
25 28 217
25 29 24
25 30 57
25 31 140
25 32 18
25 33 26
25 34 205
25 35 0
25 36 14
25 37 167
25 38 137
25 39 181
25 40 232
25 41 66
25 42 258
25 43 125
25 44 19
25 45 142
25 46 269
25 47 125
25 48 82
25 49 61
25 50 139
25 51 156
25 52 236
25 53 3
25 54 10
25 55 31
25 56 253
25 57 108
25 58 91
25 59 224
25 60 102
25 61 114
25 62 33
25 63 41
25 64 105
25 65 177
25 66 25
25 67 181
25 68 176
25 69 0
25 70 263
25 71 261
25 72 15
25 73 119
25 74 242
25 75 158
25 76 160
25 77 172
25 78 168
25 79 152
25 80 176
25 81 257
25 82 18
25 83 194
25 84 102
25 85 171
25 86 167
25 87 129
25 88 128
25 89 173
25 90 241
26 27 108
26 28 120
26 29 154
26 30 135
26 31 180
26 32 124
26 33 131
26 34 21
26 35 83
26 36 264
26 37 43
26 38 123
26 39 95
26 40 76
26 41 72
26 42 186
26 43 58
26 44 47
26 45 198
26 46 256
26 47 233
26 48 87
26 49 59
26 50 8
26 51 258
26 52 131
26 53 142
26 54 79
26 55 195
26 56 34
26 57 42
26 58 162
26 59 78
26 60 67
26 61 170
26 62 169
26 63 196
26 64 108
26 65 169
26 66 167
26 67 208
26 68 250
26 69 13
26 70 25
26 71 38
26 72 203
26 73 261
26 74 242
26 75 92
26 76 73
26 77 14
26 78 47
26 79 71
26 80 129
26 81 198
26 82 60
26 83 231
26 84 122
26 85 97
26 86 239
26 87 103
26 88 53
26 89 38
26 90 49
27 28 209
27 29 186
27 30 140
27 31 75
27 32 181
27 33 24
27 34 223
27 35 22
27 36 109
27 37 161
27 38 103
27 39 237
27 40 163
27 41 250
27 42 173
27 43 264
27 44 169
27 45 234
27 46 142
27 47 235
27 48 62
27 49 158
27 50 165
27 51 97
27 52 109
27 53 138
27 54 67
27 55 54
27 56 77
27 57 122
27 58 173
27 59 201
27 60 108
27 61 123
27 62 232
27 63 151
27 64 81
27 65 81
27 66 32
27 67 30
27 68 122
27 69 215
27 70 103
27 71 165
27 72 194
27 73 170
27 74 61
27 75 173
27 76 82
27 77 241
27 78 168
27 79 72
27 80 260
27 81 29
27 82 163
27 83 48
27 84 256
27 85 135
27 86 265
27 87 24
27 88 115
27 89 268
27 90 27
28 29 247
28 30 64
28 31 144
28 32 247
28 33 187
28 34 218
28 35 95
28 36 37
28 37 167
28 38 191
28 39 218
28 40 44
28 41 16
28 42 187
28 43 90
28 44 119
28 45 17
28 46 230
28 47 48
28 48 262
28 49 204
28 50 250
28 51 253
28 52 194
28 53 243
28 54 163
28 55 172
28 56 246
28 57 226
28 58 0
28 59 117
28 60 166
28 61 146
28 62 117
28 63 243
28 64 100
28 65 131
28 66 86
28 67 21
28 68 112
28 69 33
28 70 166
28 71 71
28 72 101
28 73 197
28 74 102
28 75 53
28 76 268
28 77 100
28 78 224
28 79 46
28 80 168
28 81 221
28 82 206
28 83 61
28 84 35
28 85 227
28 86 159
28 87 30
28 88 176
28 89 30
28 90 96
29 30 224
29 31 118
29 32 35
29 33 73
29 34 184
29 35 71
29 36 195
29 37 61
29 38 226
29 39 215
29 40 47
29 41 0
29 42 65
29 43 127
29 44 39
29 45 76
29 46 121
29 47 168
29 48 77
29 49 83
29 50 66
29 51 78
29 52 249
29 53 125
29 54 141
29 55 109
29 56 15
29 57 166
29 58 89
29 59 176
29 60 143
29 61 201
29 62 29
29 63 49
29 64 64
29 65 141
29 66 111
29 67 131
29 68 92
29 69 121
29 70 137
29 71 228
29 72 141
29 73 115
29 74 265
29 75 25
29 76 57
29 77 209
29 78 51
29 79 197
29 80 111
29 81 248
29 82 157
29 83 183
29 84 122
29 85 10
29 86 111
29 87 118
29 88 159
29 89 197
29 90 175
30 31 176
30 32 40
30 33 153
30 34 72
30 35 251
30 36 87
30 37 177
30 38 122
30 39 88
30 40 131
30 41 20
30 42 215
30 43 9
30 44 139
30 45 87
30 46 192
30 47 113
30 48 78
30 49 87
30 50 86
30 51 210
30 52 115
30 53 42
30 54 251
30 55 194
30 56 235
30 57 100
30 58 134
30 59 70
30 60 130
30 61 132
30 62 128
30 63 8
30 64 151
30 65 250
30 66 143
30 67 11
30 68 239
30 69 115
30 70 53
30 71 90
30 72 246
30 73 60
30 74 253
30 75 244
30 76 166
30 77 83
30 78 74
30 79 47
30 80 5
30 81 59
30 82 252
30 83 235
30 84 35
30 85 245
30 86 268
30 87 144
30 88 265
30 89 231
30 90 67
31 32 50
31 33 53
31 34 220
31 35 167
31 36 80
31 37 130
31 38 234
31 39 114
31 40 85
31 41 232
31 42 175
31 43 235
31 44 41
31 45 41
31 46 207
31 47 44
31 48 114
31 49 15
31 50 27
31 51 133
31 52 34
31 53 111
31 54 87
31 55 104
31 56 218
31 57 125
31 58 245
31 59 180
31 60 88
31 61 258
31 62 64
31 63 73
31 64 101
31 65 223
31 66 159
31 67 31
31 68 14
31 69 2
31 70 47
31 71 35
31 72 32
31 73 32
31 74 245
31 75 156
31 76 219
31 77 11
31 78 166
31 79 16
31 80 184
31 81 250
31 82 137
31 83 192
31 84 211
31 85 2
31 86 38
31 87 213
31 88 159
31 89 158
31 90 36
32 33 220
32 34 175
32 35 73
32 36 4
32 37 43
32 38 112
32 39 103
32 40 239
32 41 112
32 42 59
32 43 137
32 44 218
32 45 228
32 46 264
32 47 142
32 48 87
32 49 72
32 50 169
32 51 30
32 52 167
32 53 74
32 54 248
32 55 19
32 56 109
32 57 253
32 58 234
32 59 128
32 60 113
32 61 229
32 62 69
32 63 178
32 64 123
32 65 18
32 66 68
32 67 195
32 68 107
32 69 74
32 70 183
32 71 65
32 72 209
32 73 108
32 74 176
32 75 118
32 76 260
32 77 50
32 78 184
32 79 166
32 80 138
32 81 222
32 82 245
32 83 152
32 84 167
32 85 58
32 86 183
32 87 0
32 88 38
32 89 85
32 90 223
33 34 201
33 35 262
33 36 105
33 37 156
33 38 41
33 39 103
33 40 220
33 41 24
33 42 110
33 43 217
33 44 197
33 45 143
33 46 227
33 47 46
33 48 83
33 49 74
33 50 226
33 51 243
33 52 140
33 53 250
33 54 49
33 55 215
33 56 92
33 57 78
33 58 107
33 59 2
33 60 224
33 61 130
33 62 56
33 63 105
33 64 37
33 65 26
33 66 149
33 67 259
33 68 190
33 69 9
33 70 156
33 71 262
33 72 124
33 73 172
33 74 239
33 75 195
33 76 160
33 77 69
33 78 90
33 79 15
33 80 220
33 81 16
33 82 23
33 83 103
33 84 143
33 85 4
33 86 165
33 87 241
33 88 63
33 89 60
33 90 177
34 35 267
34 36 23
34 37 81
34 38 12
34 39 184
34 40 28
34 41 208
34 42 144
34 43 134
34 44 21
34 45 34
34 46 170
34 47 35
34 48 234
34 49 243
34 50 244
34 51 74
34 52 194
34 53 205
34 54 52
34 55 164
34 56 223
34 57 175
34 58 197
34 59 34
34 60 146
34 61 91
34 62 201
34 63 104
34 64 12
34 65 57
34 66 2
34 67 246
34 68 80
34 69 66
34 70 238
34 71 71
34 72 237
34 73 58
34 74 173
34 75 245
34 76 82
34 77 52
34 78 242
34 79 105
34 80 153
34 81 47
34 82 167
34 83 83
34 84 163
34 85 24
34 86 61
34 87 114
34 88 148
34 89 72
34 90 55
35 36 15
35 37 191
35 38 155
35 39 89
35 40 71
35 41 96
35 42 188
35 43 207
35 44 246
35 45 121
35 46 135
35 47 165
35 48 75
35 49 73
35 50 63
35 51 39
35 52 115
35 53 14
35 54 154
35 55 15
35 56 81
35 57 126
35 58 253
35 59 154
35 60 88
35 61 160
35 62 107
35 63 153
35 64 60
35 65 5
35 66 255
35 67 117
35 68 229
35 69 243
35 70 266
35 71 225
35 72 257
35 73 56
35 74 122
35 75 91
35 76 165
35 77 220
35 78 142
35 79 173
35 80 86
35 81 77
35 82 199
35 83 105
35 84 190
35 85 42
35 86 146
35 87 123
35 88 75
35 89 268
35 90 28
36 37 173
36 38 120
36 39 76
36 40 184
36 41 86
36 42 147
36 43 126
36 44 254
36 45 216
36 46 219
36 47 168
36 48 107
36 49 254
36 50 118
36 51 2
36 52 8
36 53 203
36 54 199
36 55 29
36 56 223
36 57 191
36 58 269
36 59 61
36 60 155
36 61 133
36 62 48
36 63 164
36 64 210
36 65 67
36 66 18
36 67 71
36 68 181
36 69 52
36 70 174
36 71 225
36 72 53
36 73 3
36 74 152
36 75 171
36 76 154
36 77 1
36 78 254
36 79 262
36 80 34
36 81 31
36 82 51
36 83 36
36 84 127
36 85 254
36 86 136
36 87 2
36 88 222
36 89 75
36 90 207
37 38 190
37 39 204
37 40 47
37 41 78
37 42 31
37 43 251
37 44 33
37 45 171
37 46 254
37 47 9
37 48 127
37 49 239
37 50 184
37 51 214
37 52 46
37 53 250
37 54 165
37 55 138
37 56 103
37 57 50
37 58 173
37 59 35
37 60 7
37 61 242
37 62 129
37 63 230
37 64 3
37 65 189
37 66 134
37 67 36
37 68 84
37 69 234
37 70 81
37 71 143
37 72 227
37 73 171
37 74 57
37 75 235
37 76 125
37 77 250
37 78 195
37 79 238
37 80 46
37 81 242
37 82 258
37 83 256
37 84 81
37 85 18
37 86 173
37 87 193
37 88 112
37 89 224
37 90 83
38 39 20
38 40 224
38 41 43
38 42 84
38 43 11
38 44 226
38 45 218
38 46 100
38 47 88
38 48 172
38 49 158
38 50 65
38 51 217
38 52 110
38 53 57
38 54 0
38 55 110
38 56 70
38 57 259
38 58 122
38 59 42
38 60 257
38 61 68
38 62 246
38 63 61
38 64 29
38 65 66
38 66 121
38 67 77
38 68 251
38 69 138
38 70 124
38 71 122
38 72 16
38 73 78
38 74 135
38 75 181
38 76 195
38 77 214
38 78 213
38 79 141
38 80 240
38 81 185
38 82 45
38 83 189
38 84 40
38 85 7
38 86 114
38 87 4
38 88 228
38 89 227
38 90 146
39 40 72
39 41 252
39 42 82
39 43 105
39 44 86
39 45 29
39 46 11
39 47 180
39 48 206
39 49 197
39 50 197
39 51 157
39 52 205
39 53 152
39 54 138
39 55 85
39 56 121
39 57 181
39 58 229
39 59 20
39 60 13
39 61 26
39 62 134
39 63 118
39 64 211
39 65 177
39 66 65
39 67 243
39 68 128
39 69 76
39 70 148
39 71 182
39 72 15
39 73 173
39 74 234
39 75 81
39 76 104
39 77 75
39 78 62
39 79 25
39 80 106
39 81 170
39 82 160
39 83 7
39 84 255
39 85 100
39 86 225
39 87 178
39 88 21
39 89 265
39 90 77
40 41 139
40 42 229
40 43 35
40 44 242
40 45 41
40 46 137
40 47 143
40 48 221
40 49 76
40 50 25
40 51 86
40 52 165
40 53 91
40 54 164
40 55 173
40 56 194
40 57 3
40 58 186
40 59 72
40 60 99
40 61 245
40 62 89
40 63 160
40 64 73
40 65 130
40 66 269
40 67 169
40 68 259
40 69 158
40 70 197
40 71 111
40 72 74
40 73 164
40 74 198
40 75 109
40 76 221
40 77 5
40 78 125
40 79 252
40 80 29
40 81 95
40 82 197
40 83 86
40 84 232
40 85 169
40 86 209
40 87 51
40 88 58
40 89 83
40 90 143
41 42 75
41 43 93
41 44 108
41 45 234
41 46 253
41 47 56
41 48 25
41 49 207
41 50 36
41 51 260
41 52 139
41 53 184
41 54 242
41 55 119
41 56 22
41 57 130
41 58 201
41 59 129
41 60 33
41 61 208
41 62 7
41 63 63
41 64 261
41 65 229
41 66 35
41 67 46
41 68 209
41 69 132
41 70 25
41 71 116
41 72 146
41 73 11
41 74 119
41 75 53
41 76 134
41 77 148
41 78 5
41 79 231
41 80 213
41 81 56
41 82 37
41 83 56
41 84 199
41 85 36
41 86 31
41 87 256
41 88 167
41 89 122
41 90 46
42 43 165
42 44 90
42 45 33
42 46 25
42 47 19
42 48 237
42 49 203
42 50 101
42 51 224
42 52 79
42 53 127
42 54 39
42 55 6
42 56 100
42 57 8
42 58 256
42 59 87
42 60 101
42 61 130
42 62 125
42 63 187
42 64 252
42 65 145
42 66 167
42 67 55
42 68 30
42 69 176
42 70 177
42 71 37
42 72 51
42 73 149
42 74 159
42 75 93
42 76 146
42 77 44
42 78 49
42 79 23
42 80 253
42 81 69
42 82 85
42 83 68
42 84 61
42 85 43
42 86 174
42 87 109
42 88 202
42 89 12
42 90 163
43 44 139
43 45 260
43 46 152
43 47 207
43 48 233
43 49 212
43 50 56
43 51 246
43 52 161
43 53 65
43 54 120
43 55 29
43 56 211
43 57 181
43 58 69
43 59 54
43 60 104
43 61 203
43 62 198
43 63 244
43 64 221
43 65 225
43 66 201
43 67 57
43 68 178
43 69 148
43 70 171
43 71 117
43 72 257
43 73 119
43 74 12
43 75 167
43 76 114
43 77 194
43 78 88
43 79 253
43 80 181
43 81 183
43 82 2
43 83 33
43 84 53
43 85 238
43 86 190
43 87 201
43 88 69
43 89 268
43 90 176
44 45 52
44 46 27
44 47 92
44 48 102
44 49 245
44 50 142
44 51 45
44 52 142
44 53 242
44 54 218
44 55 236
44 56 13
44 57 23
44 58 138
44 59 239
44 60 105
44 61 29
44 62 2
44 63 164
44 64 186
44 65 21
44 66 101
44 67 59
44 68 2
44 69 131
44 70 10
44 71 27
44 72 129
44 73 61
44 74 235
44 75 158
44 76 195
44 77 207
44 78 189
44 79 185
44 80 126
44 81 170
44 82 131
44 83 217
44 84 99
44 85 202
44 86 220
44 87 75
44 88 171
44 89 259
44 90 84
45 46 262
45 47 118
45 48 96
45 49 7
45 50 112
45 51 235
45 52 100
45 53 25
45 54 112
45 55 162
45 56 251
45 57 199
45 58 191
45 59 140
45 60 49
45 61 79
45 62 254
45 63 69
45 64 159
45 65 210
45 66 161
45 67 201
45 68 137
45 69 216
45 70 103
45 71 1
45 72 267
45 73 234
45 74 35
45 75 58
45 76 142
45 77 230
45 78 257
45 79 167
45 80 267
45 81 111
45 82 188
45 83 119
45 84 84
45 85 97
45 86 146
45 87 259
45 88 168
45 89 31
45 90 23
46 47 216
46 48 31
46 49 75
46 50 107
46 51 262
46 52 18
46 53 45
46 54 64
46 55 213
46 56 171
46 57 121
46 58 109
46 59 141
46 60 250
46 61 264
46 62 38
46 63 194
46 64 118
46 65 110
46 66 66
46 67 261
46 68 104
46 69 216
46 70 6
46 71 74
46 72 22
46 73 231
46 74 241
46 75 41
46 76 264
46 77 175
46 78 211
46 79 27
46 80 211
46 81 35
46 82 35
46 83 22
46 84 176
46 85 149
46 86 263
46 87 113
46 88 127
46 89 43
46 90 249
47 48 217
47 49 6
47 50 105
47 51 89
47 52 176
47 53 166
47 54 185
47 55 196
47 56 51
47 57 251
47 58 85
47 59 175
47 60 113
47 61 166
47 62 95
47 63 72
47 64 205
47 65 122
47 66 39
47 67 147
47 68 236
47 69 77
47 70 158
47 71 103
47 72 180
47 73 31
47 74 83
47 75 171
47 76 128
47 77 51
47 78 266
47 79 104
47 80 13
47 81 69
47 82 49
47 83 11
47 84 140
47 85 187
47 86 159
47 87 86
47 88 66
47 89 86
47 90 227
48 49 255
48 50 36
48 51 48
48 52 14
48 53 168
48 54 191
48 55 242
48 56 20
48 57 106
48 58 237
48 59 115
48 60 55
48 61 187
48 62 258
48 63 236
48 64 69
48 65 171
48 66 45
48 67 188
48 68 58
48 69 117
48 70 129
48 71 168
48 72 116
48 73 141
48 74 51
48 75 189
48 76 192
48 77 23
48 78 113
48 79 1
48 80 253
48 81 108
48 82 132
48 83 8
48 84 120
48 85 262
48 86 100
48 87 107
48 88 86
48 89 100
48 90 114
49 50 34
49 51 58
49 52 265
49 53 159
49 54 236
49 55 123
49 56 152
49 57 22
49 58 202
49 59 254
49 60 74
49 61 189
49 62 135
49 63 249
49 64 203
49 65 145
49 66 118
49 67 171
49 68 28
49 69 145
49 70 52
49 71 176
49 72 111
49 73 59
49 74 86
49 75 247
49 76 199
49 77 9
49 78 10
49 79 211
49 80 143
49 81 147
49 82 134
49 83 128
49 84 234
49 85 83
49 86 122
49 87 71
49 88 237
49 89 265
49 90 67
50 51 65
50 52 258
50 53 230
50 54 245
50 55 70
50 56 260
50 57 150
50 58 59
50 59 168
50 60 241
50 61 198
50 62 116
50 63 31
50 64 99
50 65 228
50 66 58
50 67 155
50 68 72
50 69 56
50 70 172
50 71 187
50 72 88
50 73 184
50 74 235
50 75 1
50 76 48
50 77 264
50 78 117
50 79 23
50 80 221
50 81 151
50 82 170
50 83 35
50 84 114
50 85 188
50 86 32
50 87 137
50 88 186
50 89 94
50 90 153
51 52 201
51 53 73
51 54 262
51 55 67
51 56 77
51 57 91
51 58 51
51 59 83
51 60 168
51 61 269
51 62 249
51 63 64
51 64 239
51 65 51
51 66 184
51 67 158
51 68 173
51 69 196
51 70 105
51 71 198
51 72 188
51 73 161
51 74 17
51 75 229
51 76 105
51 77 256
51 78 210
51 79 41
51 80 195
51 81 85
51 82 122
51 83 100
51 84 225
51 85 200
51 86 12
51 87 253
51 88 63
51 89 192
51 90 35
52 53 19
52 54 262
52 55 224
52 56 146
52 57 253
52 58 224
52 59 265
52 60 151
52 61 40
52 62 97
52 63 134
52 64 80
52 65 244
52 66 99
52 67 160
52 68 140
52 69 95
52 70 179
52 71 45
52 72 215
52 73 86
52 74 57
52 75 185
52 76 200
52 77 134
52 78 18
52 79 30
52 80 247
52 81 13
52 82 227
52 83 53
52 84 189
52 85 246
52 86 122
52 87 119
52 88 38
52 89 16
52 90 38
53 54 97
53 55 256
53 56 105
53 57 65
53 58 229
53 59 197
53 60 31
53 61 256
53 62 203
53 63 84
53 64 191
53 65 166
53 66 140
53 67 149
53 68 146
53 69 45
53 70 187
53 71 188
53 72 109
53 73 139
53 74 269
53 75 210
53 76 87
53 77 250
53 78 245
53 79 255
53 80 244
53 81 219
53 82 137
53 83 123
53 84 171
53 85 81
53 86 145
53 87 53
53 88 100
53 89 75
53 90 244
54 55 6
54 56 227
54 57 94
54 58 144
54 59 76
54 60 110
54 61 190
54 62 150
54 63 70
54 64 251
54 65 109
54 66 69
54 67 82
54 68 223
54 69 149
54 70 265
54 71 2
54 72 134
54 73 96
54 74 36
54 75 25
54 76 133
54 77 61
54 78 120
54 79 106
54 80 136
54 81 262
54 82 56
54 83 13
54 84 93
54 85 259
54 86 218
54 87 226
54 88 135
54 89 102
54 90 32
55 56 266
55 57 196
55 58 44
55 59 81
55 60 225
55 61 147
55 62 49
55 63 252
55 64 194
55 65 178
55 66 25
55 67 152
55 68 103
55 69 130
55 70 214
55 71 245
55 72 118
55 73 208
55 74 153
55 75 53
55 76 71
55 77 65
55 78 191
55 79 263
55 80 106
55 81 167
55 82 73
55 83 205
55 84 31
55 85 187
55 86 209
55 87 27
55 88 89
55 89 39
55 90 8
56 57 3
56 58 98
56 59 203
56 60 78
56 61 211
56 62 15
56 63 250
56 64 108
56 65 180
56 66 26
56 67 244
56 68 181
56 69 16
56 70 7
56 71 126
56 72 137
56 73 153
56 74 164
56 75 109
56 76 114
56 77 89
56 78 80
56 79 153
56 80 236
56 81 169
56 82 108
56 83 230
56 84 3
56 85 257
56 86 238
56 87 241
56 88 178
56 89 102
56 90 105
57 58 48
57 59 229
57 60 20
57 61 91
57 62 122
57 63 144
57 64 156
57 65 157
57 66 97
57 67 94
57 68 2
57 69 216
57 70 90
57 71 188
57 72 119
57 73 0
57 74 86
57 75 201
57 76 86
57 77 89
57 78 122
57 79 67
57 80 15
57 81 70
57 82 220
57 83 59
57 84 80
57 85 239
57 86 140
57 87 63
57 88 229
57 89 258
57 90 9
58 59 75
58 60 158
58 61 19
58 62 67
58 63 204
58 64 8
58 65 107
58 66 65
58 67 144
58 68 17
58 69 77
58 70 127
58 71 11
58 72 161
58 73 250
58 74 134
58 75 260
58 76 0
58 77 21
58 78 37
58 79 178
58 80 243
58 81 209
58 82 46
58 83 112
58 84 268
58 85 108
58 86 59
58 87 14
58 88 21
58 89 121
58 90 34
59 60 230
59 61 70
59 62 23
59 63 53
59 64 268
59 65 226
59 66 132
59 67 224
59 68 165
59 69 222
59 70 165
59 71 229
59 72 214
59 73 128
59 74 166
59 75 44
59 76 221
59 77 110
59 78 213
59 79 141
59 80 159
59 81 125
59 82 245
59 83 127
59 84 162
59 85 269
59 86 47
59 87 146
59 88 86
59 89 5
59 90 242
60 61 151
60 62 147
60 63 116
60 64 4
60 65 127
60 66 7
60 67 244
60 68 126
60 69 110
60 70 51
60 71 194
60 72 155
60 73 228
60 74 104
60 75 183
60 76 229
60 77 62
60 78 192
60 79 260
60 80 262
60 81 24
60 82 155
60 83 238
60 84 105
60 85 114
60 86 123
60 87 130
60 88 85
60 89 12
60 90 24
61 62 37
61 63 21
61 64 14
61 65 17
61 66 90
61 67 22
61 68 148
61 69 178
61 70 138
61 71 224
61 72 232
61 73 65
61 74 12
61 75 148
61 76 31
61 77 154
61 78 110
61 79 110
61 80 120
61 81 114
61 82 241
61 83 69
61 84 101
61 85 240
61 86 235
61 87 190
61 88 153
61 89 145
61 90 19
62 63 37
62 64 256
62 65 249
62 66 189
62 67 61
62 68 3
62 69 245
62 70 16
62 71 152
62 72 64
62 73 199
62 74 181
62 75 260
62 76 83
62 77 207
62 78 60
62 79 97
62 80 53
62 81 262
62 82 258
62 83 133
62 84 131
62 85 267
62 86 195
62 87 6
62 88 203
62 89 260
62 90 119
63 64 168
63 65 37
63 66 114
63 67 241
63 68 186
63 69 133
63 70 207
63 71 236
63 72 122
63 73 138
63 74 134
63 75 168
63 76 264
63 77 223
63 78 57
63 79 152
63 80 94
63 81 175
63 82 94
63 83 91
63 84 267
63 85 262
63 86 60
63 87 29
63 88 99
63 89 244
63 90 252
64 65 6
64 66 168
64 67 63
64 68 7
64 69 118
64 70 159
64 71 205
64 72 204
64 73 6
64 74 90
64 75 206
64 76 269
64 77 65
64 78 218
64 79 211
64 80 263
64 81 208
64 82 15
64 83 107
64 84 143
64 85 20
64 86 47
64 87 227
64 88 265
64 89 224
64 90 183
65 66 59
65 67 216
65 68 263
65 69 10
65 70 36
65 71 210
65 72 211
65 73 261
65 74 138
65 75 176
65 76 188
65 77 229
65 78 100
65 79 161
65 80 149
65 81 240
65 82 76
65 83 134
65 84 232
65 85 142
65 86 41
65 87 78
65 88 166
65 89 219
65 90 208
66 67 268
66 68 89
66 69 205
66 70 60
66 71 185
66 72 48
66 73 22
66 74 98
66 75 142
66 76 159
66 77 147
66 78 42
66 79 31
66 80 73
66 81 27
66 82 243
66 83 142
66 84 53
66 85 40
66 86 103
66 87 218
66 88 171
66 89 11
66 90 58
67 68 143
67 69 48
67 70 229
67 71 3
67 72 153
67 73 123
67 74 112
67 75 68
67 76 187
67 77 59
67 78 211
67 79 109
67 80 132
67 81 69
67 82 66
67 83 87
67 84 83
67 85 78
67 86 260
67 87 72
67 88 40
67 89 97
67 90 18
68 69 35
68 70 245
68 71 31
68 72 137
68 73 29
68 74 102
68 75 230
68 76 85
68 77 222
68 78 214
68 79 211
68 80 139
68 81 212
68 82 106
68 83 224
68 84 210
68 85 253
68 86 164
68 87 149
68 88 266
68 89 207
68 90 189
69 70 246
69 71 100
69 72 123
69 73 173
69 74 12
69 75 248
69 76 19
69 77 84
69 78 228
69 79 169
69 80 118
69 81 51
69 82 238
69 83 53
69 84 159
69 85 91
69 86 196
69 87 148
69 88 227
69 89 248
69 90 246
70 71 253
70 72 88
70 73 125
70 74 175
70 75 261
70 76 46
70 77 199
70 78 114
70 79 57
70 80 145
70 81 37
70 82 215
70 83 236
70 84 73
70 85 117
70 86 259
70 87 244
70 88 60
70 89 176
70 90 262
71 72 152
71 73 34
71 74 241
71 75 18
71 76 191
71 77 74
71 78 238
71 79 216
71 80 145
71 81 244
71 82 253
71 83 78
71 84 258
71 85 50
71 86 16
71 87 43
71 88 205
71 89 269
71 90 38
72 73 0
72 74 220
72 75 76
72 76 94
72 77 54
72 78 73
72 79 244
72 80 56
72 81 181
72 82 231
72 83 18
72 84 50
72 85 175
72 86 182
72 87 131
72 88 11
72 89 52
72 90 168
73 74 225
73 75 269
73 76 174
73 77 133
73 78 189
73 79 142
73 80 77
73 81 193
73 82 76
73 83 104
73 84 241
73 85 112
73 86 30
73 87 227
73 88 160
73 89 199
73 90 3
74 75 69
74 76 15
74 77 8
74 78 245
74 79 162
74 80 162
74 81 85
74 82 2
74 83 45
74 84 186
74 85 136
74 86 172
74 87 5
74 88 108
74 89 9
74 90 178
75 76 201
75 77 62
75 78 263
75 79 32
75 80 76
75 81 141
75 82 1
75 83 155
75 84 265
75 85 7
75 86 11
75 87 89
75 88 127
75 89 36
75 90 76
76 77 63
76 78 104
76 79 151
76 80 32
76 81 207
76 82 75
76 83 201
76 84 190
76 85 193
76 86 5
76 87 228
76 88 59
76 89 172
76 90 248
77 78 220
77 79 29
77 80 181
77 81 105
77 82 12
77 83 245
77 84 180
77 85 19
77 86 60
77 87 57
77 88 127
77 89 189
77 90 188
78 79 198
78 80 247
78 81 73
78 82 243
78 83 15
78 84 27
78 85 247
78 86 26
78 87 139
78 88 188
78 89 30
78 90 189
79 80 201
79 81 44
79 82 208
79 83 192
79 84 122
79 85 17
79 86 268
79 87 38
79 88 37
79 89 244
79 90 13
80 81 43
80 82 252
80 83 246
80 84 155
80 85 174
80 86 132
80 87 98
80 88 159
80 89 110
80 90 41
81 82 224
81 83 54
81 84 87
81 85 167
81 86 144
81 87 113
81 88 153
81 89 113
81 90 267
82 83 78
82 84 122
82 85 161
82 86 174
82 87 25
82 88 94
82 89 109
82 90 262
83 84 22
83 85 29
83 86 83
83 87 159
83 88 87
83 89 106
83 90 122
84 85 211
84 86 237
84 87 214
84 88 15
84 89 6
84 90 257
85 86 8
85 87 267
85 88 108
85 89 262
85 90 232
86 87 239
86 88 64
86 89 154
86 90 91
87 88 241
87 89 264
87 90 146
88 89 231
88 90 108
89 90 133
